words_hard_train/4113.qaiger
aag 81 15 0 1 66
2
4
8
10
16
20
24
28
36
40
44
50
54
74
92
163
6 2 4
12 8 10
14 6 12
18 14 16
22 18 20
26 22 24
30 26 28
32 27 29
34 31 33
38 37 21
42 41 9
46 45 11
48 43 47
52 50 2
56 55 5
58 52 57
60 54 4
62 59 61
64 40 8
66 62 65
68 48 67
70 44 10
72 69 71
76 75 17
78 74 16
80 77 79
82 73 80
84 83 79
86 39 85
88 36 20
90 87 89
94 93 25
96 92 24
98 95 97
100 91 98
102 101 97
104 35 102
106 34 103
108 105 107
110 72 81
112 111 83
114 15 17
116 115 19
118 113 116
120 112 117
122 119 121
124 50 55
126 124 45
128 126 41
130 122 128
132 19 36
134 18 37
136 133 135
138 136 84
140 137 85
142 139 141
144 130 143
146 90 99
148 147 101
150 23 25
152 151 27
154 148 153
156 144 155
158 149 152
160 156 159
162 109 160
i0 1 x1[0]
i1 1 x1[1]
i2 1 x1[2]
i3 1 x1[3]
i4 1 x1[4]
i5 1 x1[5]
i6 1 x1[6]
i7 2 y2[7]
i8 2 y2[5]
i9 2 y2[2]
i10 2 y2[3]
i11 2 y2[0]
i12 2 y2[1]
i13 2 y2[4]
i14 2 y2[6]
o0 bool[0]
c
simplified
  !=
    subtract
      1 x1
      unary minus
        1
    add
      1 x1
      2 y2
