words_hard_train/4113.qaiger.qdimacs
p cnf 81 199
a 1 2 4 5 8 10 12 0
e 3 6 7 9 11 13 14 15 16 17 18 19 20 21 22 23 24 25 26 27 28 29 30 31 32 33 34 35 36 37 38 39 40 41 42 43 44 45 46 47 48 49 50 51 52 53 54 55 56 57 58 59 60 61 62 63 64 65 66 67 68 69 70 71 72 73 74 75 76 77 78 79 80 81 0
-1 -2 3 0
1 -3 0
2 -3 0
-4 -5 6 0
4 -6 0
5 -6 0
-3 -6 7 0
3 -7 0
6 -7 0
-7 -8 9 0
7 -9 0
8 -9 0
-9 -10 11 0
9 -11 0
10 -11 0
-11 -12 13 0
11 -13 0
12 -13 0
-13 -14 15 0
13 -15 0
14 -15 0
13 14 16 0
-13 -16 0
-14 -16 0
15 16 17 0
-15 -17 0
-16 -17 0
18 10 19 0
-18 -19 0
-10 -19 0
20 4 21 0
-20 -21 0
-4 -21 0
22 5 23 0
-22 -23 0
-5 -23 0
21 23 24 0
-21 -24 0
-23 -24 0
-25 -1 26 0
25 -26 0
1 -26 0
27 2 28 0
-27 -28 0
-2 -28 0
-26 28 29 0
26 -29 0
-28 -29 0
-27 -2 30 0
27 -30 0
2 -30 0
29 30 31 0
-29 -31 0
-30 -31 0
-20 -4 32 0
20 -32 0
4 -32 0
-31 32 33 0
31 -33 0
-32 -33 0
-24 33 34 0
24 -34 0
-33 -34 0
-22 -5 35 0
22 -35 0
5 -35 0
34 35 36 0
-34 -36 0
-35 -36 0
37 8 38 0
-37 -38 0
-8 -38 0
-37 -8 39 0
37 -39 0
8 -39 0
38 39 40 0
-38 -40 0
-39 -40 0
36 -40 41 0
-36 -41 0
40 -41 0
41 39 42 0
-41 -42 0
-39 -42 0
19 42 43 0
-19 -43 0
-42 -43 0
-18 -10 44 0
18 -44 0
10 -44 0
43 44 45 0
-43 -45 0
-44 -45 0
46 12 47 0
-46 -47 0
-12 -47 0
-46 -12 48 0
46 -48 0
12 -48 0
47 48 49 0
-47 -49 0
-48 -49 0
45 -49 50 0
-45 -50 0
49 -50 0
50 48 51 0
-50 -51 0
-48 -51 0
17 -51 52 0
-17 -52 0
51 -52 0
-17 51 53 0
17 -53 0
-51 -53 0
52 53 54 0
-52 -54 0
-53 -54 0
-36 40 55 0
36 -55 0
-40 -55 0
55 41 56 0
-55 -56 0
-41 -56 0
7 8 57 0
-7 -57 0
-8 -57 0
57 9 58 0
-57 -58 0
-9 -58 0
56 -58 59 0
-56 -59 0
58 -59 0
-56 58 60 0
56 -60 0
-58 -60 0
59 60 61 0
-59 -61 0
-60 -61 0
-25 27 62 0
25 -62 0
-27 -62 0
-62 22 63 0
62 -63 0
-22 -63 0
-63 20 64 0
63 -64 0
-20 -64 0
-61 -64 65 0
61 -65 0
64 -65 0
9 -18 66 0
-9 -66 0
18 -66 0
-9 18 67 0
9 -67 0
-18 -67 0
66 67 68 0
-66 -68 0
-67 -68 0
-68 -42 69 0
68 -69 0
42 -69 0
68 42 70 0
-68 -70 0
-42 -70 0
69 70 71 0
-69 -71 0
-70 -71 0
-65 71 72 0
65 -72 0
-71 -72 0
-45 49 73 0
45 -73 0
-49 -73 0
73 50 74 0
-73 -74 0
-50 -74 0
11 12 75 0
-11 -75 0
-12 -75 0
75 13 76 0
-75 -76 0
-13 -76 0
-74 76 77 0
74 -77 0
-76 -77 0
-72 77 78 0
72 -78 0
-77 -78 0
74 -76 79 0
-74 -79 0
76 -79 0
-78 79 80 0
78 -80 0
-79 -80 0
54 -80 81 0
-54 -81 0
80 -81 0
-81 0
